\* Problem: Unknown *\

Maximize
 obj: + xp_0_0 + xp_0_1 + xp_0_2 + xp_0_3 + xp_0_4 + xp_0_5 + xp_0_6
 + xp_0_7 + xp_0_8 + xp_1_0 + xp_1_1 + xp_2_0 + xp_2_1 + xp_2_2 + xp_2_3
 + xp_2_4 + xp_3_0 + xp_3_1 + xp_3_2 + xp_3_3 + xp_4_0 + xp_4_1 + xp_4_2
 + xp_5_0 + xp_5_1 + xp_5_2 + xp_6_0 + xp_6_1 + xp_6_2 + xp_6_3 + xp_7_0
 + xp_7_1 + xp_8_0 + xp_8_1 + xp_9_0 + xp_10_0 + xp_10_1 + xp_11_0
 + xp_11_1 + xp_11_2 + xp_11_3 + xp_11_4 + xp_12_0 + xp_13_0 + xp_13_1
 + xp_14_0 + xp_14_1 + xp_15_0 + xp_15_1 + xp_16_0 + xp_16_1 + xp_17_0
 + xp_17_1 + xp_17_2 + xp_17_3 + xp_17_4 + xp_17_5 + xp_17_6 + xp_17_7
 + xp_18_0 + xp_18_1 + xp_18_2 + xp_18_3 + xp_18_4 + xp_19_0 + xp_19_1
 + xp_19_2 + xp_19_3 + xp_19_4 + xp_19_5 + xp_19_6 + xp_19_7 + xp_20_0
 + xp_20_1 + xp_20_2 + xp_20_3 + xp_21_0 + xp_21_1 + xp_21_2 + xp_21_3
 + xp_21_4 + xp_22_0 + xp_22_1 + xp_22_2 + xp_22_3 + xp_22_4 + xp_22_5
 + xp_22_6 + xp_22_7 + xp_22_8 + xp_23_0 + xp_23_1 + xp_23_2 + xp_23_3
 + xp_23_4 + xp_23_5 + xp_23_6

Subject To
 r_1: 0 xp_0_0 <= 28.3056478405316
 r_2: + xp_23_5 + xp_22_5 + xp_18_2 + xp_6_3 + xp_5_2 + xp_2_3
 <= 27.5681198910082
 r_3: + xp_21_1 + xp_19_6 + xp_18_3 + xp_15_1 + xp_6_1
 <= 29.7154017857143
 r_4: + xp_18_4 + xp_17_1 + xp_15_0 <= 29.7154017857143
 r_5: + xp_18_0 <= 26.9175824175824
 r_6: + xp_19_4 + xp_18_1 <= 28.4612068965517
 r_7: + xp_20_3 <= 28.3056478405316
 r_8: + xp_23_6 + xp_23_2 + xp_22_3 + xp_17_6 + xp_11_2 + xp_5_1
 + xp_3_3 + xp_3_2 + xp_2_2 <= 27.5681198910082
 r_9: + xp_23_3 + xp_22_8 + xp_11_1 + xp_3_1 <= 28.4612068965517
 r_10: + xp_17_7 + xp_11_4 + xp_3_0 <= 28.4612068965517
 r_11: + xp_18_1 + xp_11_3 + xp_0_8 <= 26.9175824175824
 r_12: + xp_11_0 <= 28.4612068965517
 r_13: 0 xp_0_0 <= 28.4612068965517
 r_14: + xp_21_2 + xp_14_0 + xp_4_1 + xp_0_6 + xp_0_1
 <= 27.5681198910082
 r_15: + xp_21_0 + xp_19_3 <= 28.3056478405316
 r_16: + xp_22_1 + xp_21_4 + xp_19_7 + xp_0_5 + xp_0_3 + xp_0_2
 <= 29.7154017857143
 r_17: + xp_0_0 <= 26.9175824175824
 r_18: + xp_21_1 + xp_19_6 + xp_19_4 + xp_4_0 <= 28.3056478405316
 r_19: + xp_19_0 <= 28.3056478405316
 r_20: + xp_21_3 + xp_19_5 + xp_19_2 + xp_19_1 + xp_14_1 + xp_4_2
 + xp_0_8 + xp_0_7 + xp_0_4 <= 28.3056478405316
 r_21: + xp_20_1 <= 27.5681198910082
 r_22: + xp_21_2 + xp_7_1 <= 27.5681198910082
 r_23: + xp_23_6 + xp_22_5 + xp_22_3 + xp_22_2 + xp_17_6 + xp_17_3
 + xp_3_3 <= 29.7154017857143
 r_24: + xp_23_5 + xp_23_4 + xp_23_2 + xp_6_3 + xp_6_2 + xp_3_2 + xp_0_6
 + xp_0_4 <= 28.8106343283582
 r_25: 0 xp_0_0 <= 27.5681198910082
 r_26: + xp_18_2 + xp_0_7 + xp_0_1 <= 26.9175824175824
 r_27: + xp_11_2 + xp_4_2 + xp_4_1 <= 27.5681198910082
 r_28: + xp_19_2 + xp_10_1 <= 27.5681198910082
 r_29: + xp_20_2 <= 28.3056478405316
 r_30: + xp_2_0 <= 27.5681198910082
 r_31: + xp_23_3 + xp_22_8 + xp_18_3 + xp_15_1 + xp_6_1 + xp_3_1
 + xp_2_4 <= 28.8106343283582
 r_32: + xp_2_1 <= 30
 r_33: + xp_11_1 + xp_2_3 <= 29.7154017857143
 r_34: + xp_19_6 + xp_19_5 + xp_19_3 + xp_2_2 <= 28.4612068965517
 r_35: 0 xp_0_0 <= 29.7154017857143
 r_36: + xp_9_0 <= 29.7154017857143
 r_37: + xp_21_4 + xp_13_1 + xp_8_1 + xp_0_3 <= 28.8106343283582
 r_38: + xp_23_6 + xp_1_1 <= 29.7154017857143
 r_39: + xp_19_7 + xp_17_6 + xp_17_3 + xp_17_2 + xp_3_3 + xp_0_5
 <= 29.7154017857143
 r_40: + xp_0_2 <= 26.9175824175824
 r_41: + xp_12_0 + xp_2_4 <= 28.8106343283582
 r_42: + xp_21_4 <= 28.8106343283582
 r_43: + xp_22_4 + xp_16_0 <= 28.8106343283582
 r_44: + xp_23_5 + xp_23_4 + xp_23_3 + xp_23_2 + xp_23_1 + xp_22_8
 + xp_22_7 + xp_16_1 <= 28.8106343283582
 r_45: + xp_17_4 + xp_15_1 + xp_3_2 + xp_3_1 <= 28.8106343283582
 r_46: + xp_18_3 + xp_0_6 + xp_0_4 + xp_0_3 <= 26.9175824175824
 r_47: + xp_22_8 + xp_22_7 + xp_22_6 + xp_16_1 + xp_13_1
 <= 29.7154017857143
 r_48: + xp_13_0 <= 28.8106343283582
 r_49: + xp_17_5 <= 30
 r_50: 0 xp_0_0 <= 26.9175824175824
 r_51: + xp_8_1 + xp_1_1 <= 29.7154017857143
 r_52: + xp_8_0 <= 28.8106343283582
 r_53: + xp_1_0 <= 30
 r_54: + xp_18_4 + xp_0_5 <= 26.9175824175824
 r_55: + xp_11_4 <= 29.7154017857143
 r_56: + xp_19_7 <= 28.4612068965517
 r_57: + xp_22_1 <= 26.9175824175824
 r_58: + xp_23_4 + xp_22_2 + xp_17_3 + xp_6_2 + xp_5_0
 <= 26.9175824175824
 r_59: + xp_22_0 + xp_17_2 <= 26.9175824175824
 r_60: + xp_23_1 + xp_22_7 + xp_22_4 + xp_17_4 + xp_6_0
 <= 26.9175824175824
 r_61: + xp_23_0 + xp_22_6 + xp_17_5 <= 26.9175824175824
 r_62: + xp_17_0 <= 26.9175824175824
 r_63: + xp_23_5 + xp_22_5 + xp_17_1 + xp_11_3 + xp_6_3 + xp_6_1
 + xp_5_2 <= 26.9175824175824
 r_64: + xp_23_6 + xp_23_3 + xp_23_2 + xp_22_8 + xp_22_3 + xp_17_7
 + xp_17_6 + xp_5_1 <= 26.9175824175824
 r_65: + xp_20_1 + xp_19_2 + xp_14_1 + xp_10_1 + xp_7_1 + xp_4_2
 + xp_2_1 + xp_0_7 + xp_0_4 <= 27.5681198910082
 r_66: + xp_21_3 + xp_20_2 + xp_19_5 + xp_7_0 <= 30
 r_67: + xp_20_3 + xp_19_1 + xp_10_0 + xp_0_8 <= 28.4612068965517
 r_68: + xp_20_0 <= 28.3056478405316

Bounds
 0 <= xp_0_0 <= 28.9815392182529
 0 <= xp_0_1 <= 5.02082490420544
 0 <= xp_0_2 <= 13.8832694702938
 0 <= xp_0_3 <= 1.98332421004197
 0 <= xp_0_4 <= 1.21500027766539
 0 <= xp_0_5 <= 5.9499726301259
 0 <= xp_0_6 <= 3.19832448770736
 0 <= xp_0_7 <= 3.19832448770736
 0 <= xp_0_8 <= 0.607500138832695
 0 <= xp_1_0 <= 19.9106512443376
 0 <= xp_1_1 <= 15.9440028242537
 0 <= xp_2_0 <= 24.8838644675568
 0 <= xp_2_1 <= 0.541986973526589
 0 <= xp_2_2 <= 1.98332421004197
 0 <= xp_2_3 <= 6.31921999825468
 0 <= xp_2_4 <= 1.62596092057977
 0 <= xp_3_0 <= 23.6331127876812
 0 <= xp_3_1 <= 3.4365613918176
 0 <= xp_3_2 <= 5.41988560185957
 0 <= xp_3_3 <= 0.363309295443908
 0 <= xp_4_0 <= 22.8707427945831
 0 <= xp_4_1 <= 1.90589523288193
 0 <= xp_4_2 <= 1.90589523288193
 0 <= xp_5_0 <= 19.0589523288193
 0 <= xp_5_1 <= 3.81179046576386
 0 <= xp_5_2 <= 3.81179046576386
 0 <= xp_6_0 <= 15.4377513863436
 0 <= xp_6_1 <= 5.14591712878121
 0 <= xp_6_2 <= 1.71530570959374
 0 <= xp_6_3 <= 1.71530570959374
 0 <= xp_7_0 <= 18.0821810219673
 0 <= xp_7_1 <= 4.93150391508199
 0 <= xp_8_0 <= 19.2018944712854
 0 <= xp_8_1 <= 1.4770688054835
 0 <= xp_9_0 <= 19.1780707808744
 0 <= xp_10_0 <= 17.8082085822405
 0 <= xp_10_1 <= 1.36986219863389
 0 <= xp_11_0 <= 25.7832147305456
 0 <= xp_11_1 <= 13.8832694702938
 0 <= xp_11_2 <= 7.93329684016787
 0 <= xp_11_3 <= 5.9499726301259
 0 <= xp_11_4 <= 1.98332421004197
 0 <= xp_12_0 <= 18.0107099507342
 0 <= xp_13_0 <= 12.5074374657877
 0 <= xp_13_1 <= 5.00297498631506
 0 <= xp_14_0 <= 13.1030297260633
 0 <= xp_14_1 <= 3.57355356165362
 0 <= xp_15_0 <= 14.1512721041483
 0 <= xp_15_1 <= 2.35854535069139
 0 <= xp_16_0 <= 14.7111288288074
 0 <= xp_16_1 <= 1.13162529452365
 0 <= xp_17_0 <= 27.7843967917748
 0 <= xp_17_1 <= 4.63966172422274
 0 <= xp_17_2 <= 4.63966172422274
 0 <= xp_17_3 <= 1.32816875709038
 0 <= xp_17_4 <= 2.65633751418077
 0 <= xp_17_5 <= 2.65633751418077
 0 <= xp_17_6 <= 1.32816875709038
 0 <= xp_17_7 <= 1.32816875709038
 0 <= xp_18_0 <= 22.1798557726635
 0 <= xp_18_1 <= 14.6575275087068
 0 <= xp_18_2 <= 5.15187503470817
 0 <= xp_18_3 <= 1.18522661462424
 0 <= xp_18_4 <= 1.18522661462424
 0 <= xp_19_0 <= 28.9160300195952
 0 <= xp_19_1 <= 3.44847323702311
 0 <= xp_19_2 <= 4.59796431603081
 0 <= xp_19_3 <= 2.29898215801541
 0 <= xp_19_4 <= 1.1494910790077
 0 <= xp_19_5 <= 1.1494910790077
 0 <= xp_19_6 <= 1.1494910790077
 0 <= xp_19_7 <= 1.1494910790077
 0 <= xp_20_0 <= 27.9630784365059
 0 <= xp_20_1 <= 5.44965926490072
 0 <= xp_20_2 <= 5.2531197689824
 0 <= xp_20_3 <= 4.35972741192057
 0 <= xp_21_0 <= 27.7010178419846
 0 <= xp_21_1 <= 3.83560622287804
 0 <= xp_21_2 <= 3.83560622287804
 0 <= xp_21_3 <= 1.91780311143902
 0 <= xp_21_4 <= 3.90112732148099
 0 <= xp_22_0 <= 22.3525914114128
 0 <= xp_22_1 <= 1.67956620732878
 0 <= xp_22_2 <= 3.66289041737075
 0 <= xp_22_3 <= 3.66289041737075
 0 <= xp_22_4 <= 2.82310731370636
 0 <= xp_22_5 <= 2.82310731370636
 0 <= xp_22_6 <= 0.83978310366439
 0 <= xp_22_7 <= 0.83978310366439
 0 <= xp_22_8 <= 0.83978310366439
 0 <= xp_23_0 <= 25.1756987251192
 0 <= xp_23_1 <= 5.03869862198634
 0 <= xp_23_2 <= 0.83978310366439
 0 <= xp_23_3 <= 5.9499726301259
 0 <= xp_23_4 <= 0.83978310366439
 0 <= xp_23_5 <= 0.83978310366439
 0 <= xp_23_6 <= 0.83978310366439

End
